k = 64;
b = 32;
AtomicConstraints =  [|
1, 2|
	1, 4|
	1, 35|
	1, 37|
	2, 35|
	2, 37|
	3, 2|
	3, 4|
	3, 6|
	3, 35|
	3, 37|
	4, 35|
	4, 37|
	5, 2|
	5, 4|
	5, 6|
	5, 35|
	5, 37|
	6, 35|
	6, 37|
	8, 9|
	8, 10|
	8, 12|
	8, 13|
	8, 28|
	8, 34|
	8, 31|
	9, 10|
	9, 13|
	9, 31|
	11, 8|
	11, 9|
	11, 10|
	11, 12|
	11, 13|
	11, 28|
	11, 34|
	11, 31|
	12, 10|
	12, 13|
	14, 9|
	14, 10|
	14, 12|
	14, 13|
	14, 38|
	14, 16|
	14, 18|
	14, 33|
	14, 19|
	14, 31|
	7, 15|
	7, 24|
	7, 28|
	7, 30|
	7, 34|
	7, 31|
	38, 16|
	38, 19|
	17, 10|
	17, 12|
	17, 13|
	17, 38|
	17, 16|
	17, 18|
	17, 33|
	17, 19|
	17, 21|
	17, 36|
	17, 22|
	18, 13|
	18, 38|
	18, 16|
	18, 33|
	18, 19|
	18, 36|
	18, 22|
	33, 16|
	33, 19|
	33, 22|
	20, 13|
	20, 38|
	20, 16|
	20, 18|
	20, 33|
	20, 19|
	20, 21|
	20, 36|
	20, 22|
	20, 25|
	20, 26|
	20, 27|
	21, 16|
	21, 33|
	21, 19|
	21, 36|
	21, 22|
	21, 26|
	21, 27|
	36, 19|
	36, 22|
	36, 27|
	15, 24|
	15, 28|
	15, 34|
	15, 31|
	23, 16|
	23, 33|
	23, 19|
	23, 21|
	23, 36|
	23, 22|
	23, 25|
	23, 26|
	23, 27|
	25, 19|
	25, 36|
	25, 22|
	25, 26|
	25, 27|
	26, 22|
	26, 27|
	24, 28|
	24, 31|
	29, 8|
	29, 9|
	29, 10|
	29, 15|
	29, 24|
	29, 28|
	29, 30|
	29, 34|
	29, 31|
	30, 9|
	30, 10|
	30, 24|
	30, 28|
	30, 34|
	30, 31|
	34, 10|
	34, 28|
	34, 31|
	32, 8|
	32, 9|
	32, 10|
	32, 12|
	32, 13|
	32, 24|
	32, 28|
	32, 30|
	32, 34|
	32, 31|
	37, 35|
	55, 39|
	55, 61|
	55, 64|
	55, 47|
	55, 62|
	55, 40|
	55, 56|
	55, 41|
	55, 44|
	55, 60|
	55, 63|
	55, 42|
	57, 39|
	57, 61|
	57, 47|
	57, 62|
	57, 40|
	57, 56|
	57, 41|
	57, 60|
	57, 63|
	57, 42|
	52, 54|
	52, 51|
	52, 45|
	52, 48|
	52, 56|
	52, 41|
	52, 44|
	49, 51|
	49, 48|
	49, 56|
	49, 41|
	49, 44|
	54, 45|
	54, 48|
	51, 48|
	39, 56|
	39, 60|
	39, 63|
	39, 42|
	61, 56|
	61, 41|
	61, 60|
	61, 63|
	61, 42|
	64, 56|
	64, 41|
	64, 44|
	64, 60|
	64, 63|
	64, 42|
	47, 60|
	62, 60|
	62, 63|
	40, 60|
	40, 63|
	40, 42|
	53, 1|
	53, 2|
	53, 35|
	53, 37|
	53, 45|
	53, 48|
	50, 1|
	50, 2|
	50, 3|
	50, 4|
	50, 35|
	50, 37|
	50, 45|
	50, 48|
	59, 1|
	59, 2|
	59, 35|
	59, 37|
	59, 45|
	59, 48|
	59, 53|
	59, 50|
	58, 1|
	58, 2|
	58, 3|
	58, 4|
	58, 35|
	58, 37|
	58, 45|
	58, 48|
	58, 53|
	58, 50|
	46, 1|
	46, 2|
	46, 35|
	46, 37|
	46, 45|
	46, 48|
	46, 53|
	46, 50|
	46, 59|
	46, 58|
	43, 1|
	43, 2|
	43, 3|
	43, 4|
	43, 35|
	43, 37|
	43, 45|
	43, 48|
	43, 53|
	43, 50|
	43, 59|
	43, 58|];
DisjunctiveConstraints =  [|3, 5, 3, 1|
	4, 6, 4, 2|
	9, 12, 9, 34|
	10, 13, 10, 31|
	11, 14, 11, 32|
	12, 38, 12, 9|
	13, 16, 13, 10|
	14, 17, 14, 11|
	38, 33, 38, 12|
	16, 19, 16, 13|
	17, 20, 17, 14|
	33, 36, 33, 38|
	19, 22, 19, 16|
	20, 23, 20, 17|
	21, 25, 21, 18|
	36, 26, 36, 33|
	22, 27, 22, 19|
	29, 32, 29, 7|
	30, 8, 30, 15|
	34, 9, 34, 24|
	31, 10, 31, 28|
	32, 11, 32, 29|
	55, 64, 32, 55|
	55, 41, 55, 9|
	57, 61, 29, 57|
	57, 56, 57, 24|
	57, 44, 12, 57|
	52, 54, 52, 22|
	52, 45, 52, 13|
	49, 51, 49, 19|
	54, 35, 3, 54|
	54, 37, 5, 54|
	54, 45, 54, 13|
	51, 45, 13, 51|
	51, 48, 51, 16|
	39, 56, 39, 24|
	61, 64, 61, 39|
	61, 41, 61, 9|
	64, 44, 64, 12|
	62, 40, 62, 47|
	41, 44, 41, 56|
	63, 42, 63, 60|
	53, 3, 35, 53|
	50, 5, 37, 50|
	50, 35, 50, 3|
	58, 35, 58, 3|
	43, 35, 43, 3|];
SoftAtomicConstraints =  [|
3, 1|
4, 2|
5, 3|
6, 4|
29, 7|
18, 8|
12, 9|
13, 10|
14, 11|
38, 12|
16, 13|
17, 14|
30, 15|
19, 16|
20, 17|
21, 18|
22, 19|
23, 20|
25, 21|
27, 22|
34, 24|
31, 28|
32, 29|
8, 30|
10, 31|
11, 32|
36, 33|
9, 34|
15, 35|
26, 36|
33, 38|
61, 39|
39, 40|
44, 41|
56, 42|
51, 44|
43, 46|
62, 47|
45, 48|
52, 49|
54, 51|
50, 53|
41, 56|
55, 57|
58, 59|
63, 60|
64, 61|
40, 62|
42, 63|
49, 64|];
DirectSuccessors =  [];
